# file generated by clique-instgen.run
param n := 50;
set E := (0,4) (0,5) (0,6) (0,7) (0,8) (1,2) (1,3) (1,8) (2,4) (2,6) (2,8) (2,9) (3,4) (3,5) (3,6) (3,8) (4,6) (4,7) (4,8) (4,9) (5,6) (5,7) (6,8) (6,9) (8,9);
